nN = 10;
nR = 60;
nH = 2;

a = [[25, 18, 23, 22, 24, 16, 17, 21, 22, 23, 23, 25, 20, 17, 25, 24, 23, 23, 15, 25, 20, 24, 18, 21, 19, 15, 20, 17, 20, 17, 22, 24, 15, 17, 16, 20, 19, 24, 20, 20, 25, 17, 23, 19, 18, 16, 16, 20, 19, 20, 16, 19, 20, 22, 16, 24, 19, 22, 15, 21], [16, 17, 22, 15, 18, 22, 17, 15, 23, 18, 25, 21, 21, 23, 17, 21, 17, 25, 21, 21, 15, 18, 24, 25, 19, 21, 19, 22, 21, 18, 16, 21, 21, 25, 15, 25, 18, 18, 19, 17, 22, 15, 19, 16, 17, 18, 20, 16, 16, 16, 17, 24, 18, 22, 18, 16, 23, 21, 18, 15], [21, 16, 21, 17, 15, 19, 25, 22, 25, 18, 18, 23, 24, 22, 19, 20, 21, 25, 16, 17, 24, 16, 19, 17, 17, 16, 16, 24, 16, 17, 23, 24, 20, 23, 17, 17, 25, 22, 19, 24, 24, 18, 21, 20, 16, 20, 25, 23, 21, 18, 17, 23, 24, 23, 15, 21, 25, 24, 22, 16], [22, 15, 25, 24, 25, 20, 16, 17, 15, 20, 19, 23, 17, 20, 24, 25, 24, 23, 22, 20, 23, 24, 23, 24, 25, 19, 15, 25, 19, 15, 19, 18, 19, 18, 25, 17, 22, 15, 25, 17, 15, 20, 22, 23, 17, 21, 16, 22, 21, 20, 23, 23, 23, 23, 22, 18, 22, 18, 18, 24], [21, 20, 25, 23, 23, 23, 18, 22, 24, 20, 23, 15, 20, 19, 21, 18, 24, 17, 15, 17, 21, 21, 19, 24, 24, 15, 24, 21, 24, 23, 25, 17, 23, 17, 18, 19, 20, 25, 25, 21, 20, 23, 16, 25, 24, 24, 22, 24, 22, 23, 20, 19, 19, 16, 17, 15, 19, 23, 22, 25], [15, 16, 15, 15, 24, 25, 19, 22, 15, 23, 21, 19, 16, 21, 16, 15, 21, 17, 23, 20, 25, 23, 25, 16, 15, 20, 15, 18, 25, 19, 20, 18, 16, 22, 21, 23, 22, 21, 25, 19, 18, 19, 16, 22, 15, 15, 22, 21, 16, 21, 23, 19, 20, 24, 18, 17, 18, 17, 19, 16], [15, 17, 15, 21, 21, 17, 15, 21, 25, 25, 17, 16, 15, 19, 18, 25, 18, 16, 21, 21, 21, 20, 24, 21, 15, 15, 21, 25, 24, 22, 20, 15, 21, 25, 22, 18, 15, 21, 15, 22, 15, 23, 23, 17, 16, 16, 18, 21, 17, 25, 19, 20, 25, 25, 25, 17, 23, 25, 16, 23], [22, 16, 25, 22, 20, 18, 23, 18, 22, 25, 17, 15, 15, 23, 20, 22, 19, 15, 20, 23, 16, 21, 21, 25, 17, 18, 18, 15, 24, 17, 21, 22, 23, 15, 16, 23, 20, 17, 16, 15, 21, 16, 21, 23, 16, 24, 15, 21, 22, 18, 20, 19, 18, 22, 20, 20, 19, 16, 18, 22], [18, 16, 16, 24, 21, 19, 25, 19, 23, 22, 16, 22, 20, 17, 23, 23, 15, 19, 23, 15, 21, 17, 22, 20, 21, 15, 23, 15, 21, 15, 22, 25, 18, 19, 21, 25, 15, 15, 15, 24, 22, 19, 17, 22, 25, 16, 25, 19, 24, 24, 16, 15, 21, 24, 18, 18, 25, 18, 20, 25], [21, 15, 19, 24, 21, 16, 23, 19, 22, 24, 20, 19, 20, 20, 21, 23, 19, 15, 23, 15, 17, 22, 20, 16, 23, 17, 20, 24, 21, 16, 17, 19, 16, 24, 17, 21, 16, 20, 23, 22, 20, 20, 20, 18, 15, 19, 25, 22, 21, 19, 18, 23, 15, 16, 24, 20, 19, 25, 15, 17]];
c = [[[0, 0, 0, 0, 0, 0, 0, 0, 0, 0, 0, 0, 0, 0, 0, 0, 0, 0, 0, 0, 0, 0, 0, 0, 0, 0, 0, 0, 0, 0, 0, 0, 0, 0, 0, 0, 0, 0, 0, 0, 0, 0, 0, 0, 0, 0, 0, 0, 0, 0, 0, 0, 0, 0, 0, 0, 0, 0, 0, 0], [48, 43, 40, 39, 31, 49, 45, 34, 31, 46, 41, 34, 48, 47, 42, 44, 35, 49, 37, 43, 31, 32, 41, 30, 40, 50, 49, 41, 32, 41, 42, 32, 30, 40, 30, 40, 47, 44, 42, 30, 41, 38, 46, 45, 40, 36, 41, 48, 38, 40, 44, 31, 50, 31, 49, 30, 32, 37, 35, 42], [33, 32, 49, 37, 47, 42, 42, 43, 32, 32, 31, 50, 48, 45, 46, 34, 40, 46, 46, 32, 49, 31, 37, 48, 38, 43, 34, 30, 30, 37, 45, 40, 31, 48, 39, 40, 44, 31, 49, 43, 45, 43, 44, 45, 43, 31, 35, 39, 32, 41, 41, 31, 36, 30, 35, 49, 49, 49, 41, 47], [30, 34, 44, 46, 32, 34, 43, 50, 33, 35, 46, 41, 47, 40, 34, 31, 48, 37, 45, 45, 37, 35, 41, 44, 49, 45, 48, 46, 48, 41, 47, 48, 32, 37, 50, 35, 43, 41, 37, 32, 35, 44, 35, 42, 49, 35, 49, 34, 33, 45, 32, 39, 46, 48, 37, 30, 40, 38, 33, 50], [36, 50, 47, 46, 46, 36, 35, 33, 40, 34, 30, 30, 30, 38, 40, 34, 34, 49, 42, 32, 44, 38, 49, 37, 34, 44, 34, 40, 33, 41, 49, 46, 44, 33, 31, 33, 40, 41, 31, 36, 43, 34, 35, 40, 42, 49, 31, 30, 49, 36, 39, 47, 43, 31, 41, 34, 35, 35, 42, 46], [47, 45, 46, 48, 43, 48, 30, 32, 46, 49, 48, 39, 35, 36, 43, 48, 38, 45, 46, 44, 42, 35, 47, 49, 37, 30, 30, 50, 34, 46, 46, 36, 43, 48, 46, 30, 31, 36, 36, 50, 43, 43, 43, 48, 35, 49, 47, 33, 42, 35, 48, 38, 42, 45, 43, 49, 32, 44, 34, 37], [46, 36, 38, 50, 40, 39, 50, 48, 49, 50, 42, 41, 40, 30, 41, 41, 35, 34, 32, 48, 34, 45, 32, 37, 49, 48, 47, 46, 43, 44, 44, 48, 45, 31, 37, 33, 43, 43, 33, 35, 31, 36, 48, 38, 47, 40, 50, 43, 30, 46, 50, 50, 32, 36, 48, 38, 50, 42, 48, 30], [43, 31, 37, 49, 40, 48, 32, 46, 43, 31, 43, 32, 50, 43, 40, 32, 47, 41, 50, 37, 48, 36, 31, 33, 33, 49, 41, 45, 49, 39, 35, 43, 31, 48, 38, 42, 45, 50, 32, 49, 44, 45, 38, 33, 31, 49, 50, 49, 37, 44, 31, 49, 34, 35, 30, 32, 45, 30, 45, 45], [41, 39, 37, 30, 47, 38, 44, 34, 36, 46, 40, 42, 32, 35, 42, 46, 30, 35, 47, 39, 30, 48, 35, 44, 37, 37, 35, 43, 36, 35, 50, 31, 47, 34, 37, 48, 50, 40, 42, 37, 37, 50, 48, 32, 33, 37, 42, 43, 34, 35, 31, 46, 35, 35, 41, 30, 41, 47, 43, 45], [30, 33, 37, 36, 43, 40, 39, 39, 41, 32, 40, 48, 37, 36, 49, 41, 31, 41, 43, 36, 41, 33, 33, 50, 36, 38, 41, 39, 37, 45, 46, 34, 38, 43, 43, 34, 31, 44, 32, 42, 36, 45, 32, 38, 38, 34, 33, 35, 40, 41, 36, 50, 44, 35, 35, 32, 43, 39, 46, 40]], [[0, 0, 0, 0, 0, 0, 0, 0, 0, 0, 0, 0, 0, 0, 0, 0, 0, 0, 0, 0, 0, 0, 0, 0, 0, 0, 0, 0, 0, 0, 0, 0, 0, 0, 0, 0, 0, 0, 0, 0, 0, 0, 0, 0, 0, 0, 0, 0, 0, 0, 0, 0, 0, 0, 0, 0, 0, 0, 0, 0], [0, 0, 0, 0, 0, 0, 0, 0, 0, 0, 0, 0, 0, 0, 0, 0, 0, 0, 0, 0, 0, 0, 0, 0, 0, 0, 0, 0, 0, 0, 0, 0, 0, 0, 0, 0, 0, 0, 0, 0, 0, 0, 0, 0, 0, 0, 0, 0, 0, 0, 0, 0, 0, 0, 0, 0, 0, 0, 0, 0], [41, 41, 34, 50, 31, 50, 40, 40, 35, 41, 46, 43, 32, 42, 34, 44, 48, 32, 47, 36, 35, 46, 41, 44, 34, 35, 40, 44, 46, 34, 49, 50, 39, 33, 45, 32, 46, 42, 31, 46, 37, 43, 40, 49, 40, 36, 44, 33, 38, 42, 47, 49, 32, 37, 44, 45, 50, 38, 48, 39], [41, 50, 48, 37, 34, 43, 40, 46, 44, 32, 38, 49, 50, 43, 44, 45, 43, 41, 32, 46, 48, 42, 42, 47, 43, 47, 41, 30, 34, 47, 40, 40, 33, 33, 37, 41, 47, 30, 31, 37, 46, 40, 36, 31, 30, 36, 40, 38, 49, 33, 37, 38, 42, 39, 42, 47, 37, 45, 41, 42], [44, 44, 32, 38, 37, 46, 43, 41, 39, 38, 38, 40, 40, 47, 33, 40, 35, 48, 33, 45, 33, 38, 37, 36, 43, 45, 47, 41, 49, 38, 30, 43, 30, 33, 48, 42, 47, 33, 43, 47, 34, 31, 42, 49, 48, 30, 40, 38, 33, 38, 48, 41, 48, 42, 43, 36, 34, 41, 39, 35], [40, 33, 47, 45, 47, 33, 33, 46, 50, 41, 32, 40, 43, 47, 38, 40, 31, 34, 44, 49, 35, 48, 32, 31, 50, 50, 44, 34, 50, 42, 31, 32, 30, 50, 32, 46, 43, 42, 39, 40, 32, 48, 32, 38, 41, 36, 35, 36, 31, 39, 40, 40, 47, 43, 49, 46, 44, 39, 40, 33], [34, 46, 31, 46, 44, 40, 30, 42, 39, 42, 43, 47, 50, 36, 35, 31, 47, 43, 37, 37, 37, 49, 46, 50, 46, 39, 31, 50, 41, 39, 35, 31, 30, 44, 50, 46, 30, 31, 31, 40, 32, 43, 32, 48, 37, 44, 48, 45, 30, 35, 35, 41, 35, 34, 48, 48, 34, 45, 34, 35], [39, 40, 44, 46, 32, 35, 39, 32, 45, 41, 39, 30, 42, 37, 37, 30, 47, 42, 37, 41, 31, 46, 36, 39, 46, 48, 39, 50, 48, 33, 45, 46, 46, 42, 38, 30, 39, 45, 46, 34, 39, 48, 32, 47, 49, 50, 36, 46, 45, 43, 42, 49, 40, 36, 34, 47, 46, 31, 38, 40], [32, 40, 30, 34, 50, 30, 49, 32, 42, 43, 37, 31, 49, 46, 38, 32, 42, 43, 41, 44, 32, 39, 38, 49, 43, 34, 50, 33, 34, 37, 38, 47, 31, 33, 48, 30, 43, 44, 36, 42, 34, 41, 45, 42, 37, 42, 47, 50, 46, 44, 45, 45, 35, 49, 49, 37, 34, 32, 47, 37], [42, 38, 40, 31, 38, 35, 40, 45, 38, 50, 43, 39, 31, 33, 42, 35, 41, 47, 45, 38, 33, 35, 48, 38, 45, 46, 36, 35, 35, 38, 45, 40, 40, 34, 44, 41, 32, 32, 48, 39, 37, 36, 47, 43, 45, 32, 45, 41, 48, 43, 35, 43, 33, 37, 41, 48, 47, 44, 33, 41]], [[0, 0, 0, 0, 0, 0, 0, 0, 0, 0, 0, 0, 0, 0, 0, 0, 0, 0, 0, 0, 0, 0, 0, 0, 0, 0, 0, 0, 0, 0, 0, 0, 0, 0, 0, 0, 0, 0, 0, 0, 0, 0, 0, 0, 0, 0, 0, 0, 0, 0, 0, 0, 0, 0, 0, 0, 0, 0, 0, 0], [0, 0, 0, 0, 0, 0, 0, 0, 0, 0, 0, 0, 0, 0, 0, 0, 0, 0, 0, 0, 0, 0, 0, 0, 0, 0, 0, 0, 0, 0, 0, 0, 0, 0, 0, 0, 0, 0, 0, 0, 0, 0, 0, 0, 0, 0, 0, 0, 0, 0, 0, 0, 0, 0, 0, 0, 0, 0, 0, 0], [0, 0, 0, 0, 0, 0, 0, 0, 0, 0, 0, 0, 0, 0, 0, 0, 0, 0, 0, 0, 0, 0, 0, 0, 0, 0, 0, 0, 0, 0, 0, 0, 0, 0, 0, 0, 0, 0, 0, 0, 0, 0, 0, 0, 0, 0, 0, 0, 0, 0, 0, 0, 0, 0, 0, 0, 0, 0, 0, 0], [46, 30, 38, 34, 40, 42, 34, 34, 37, 43, 49, 49, 45, 40, 35, 39, 34, 36, 41, 38, 49, 30, 45, 42, 44, 45, 42, 46, 35, 37, 34, 33, 47, 34, 45, 44, 49, 40, 50, 39, 41, 35, 50, 48, 36, 35, 49, 34, 46, 37, 37, 47, 49, 38, 32, 38, 42, 33, 37, 39], [43, 34, 47, 41, 47, 40, 34, 50, 36, 44, 47, 37, 42, 34, 36, 47, 30, 38, 33, 30, 42, 32, 39, 39, 31, 49, 41, 49, 48, 38, 39, 30, 38, 38, 50, 50, 43, 41, 39, 44, 36, 30, 45, 50, 45, 32, 36, 44, 30, 37, 46, 48, 40, 35, 50, 36, 32, 49, 49, 40], [35, 39, 49, 41, 34, 31, 48, 50, 36, 36, 44, 33, 42, 41, 48, 49, 33, 49, 41, 33, 36, 42, 33, 38, 50, 36, 49, 49, 41, 39, 47, 38, 36, 31, 35, 49, 44, 30, 49, 48, 34, 33, 31, 40, 44, 39, 31, 47, 42, 32, 37, 45, 35, 34, 35, 33, 45, 40, 42, 30], [37, 32, 50, 43, 40, 44, 33, 45, 47, 34, 31, 45, 30, 32, 30, 33, 45, 37, 33, 30, 37, 50, 40, 35, 46, 41, 36, 41, 37, 38, 36, 47, 41, 46, 44, 50, 35, 44, 50, 38, 44, 45, 46, 50, 30, 34, 46, 42, 32, 45, 42, 35, 33, 48, 46, 49, 44, 42, 47, 50], [50, 41, 38, 38, 44, 41, 44, 49, 49, 44, 31, 49, 32, 41, 31, 40, 40, 46, 30, 38, 49, 49, 41, 43, 39, 48, 45, 40, 37, 43, 39, 49, 47, 40, 45, 44, 38, 50, 47, 43, 50, 48, 47, 49, 48, 35, 43, 36, 36, 32, 46, 45, 30, 37, 36, 32, 41, 33, 39, 40], [31, 45, 40, 31, 33, 44, 39, 44, 34, 48, 43, 34, 33, 49, 43, 44, 42, 33, 50, 46, 47, 46, 41, 50, 47, 40, 34, 40, 47, 32, 45, 36, 35, 47, 44, 37, 40, 30, 37, 34, 45, 40, 32, 42, 30, 49, 41, 48, 39, 35, 34, 49, 30, 47, 35, 31, 46, 48, 30, 47], [42, 33, 50, 43, 50, 48, 43, 47, 48, 34, 41, 37, 46, 34, 47, 44, 47, 32, 42, 50, 32, 46, 33, 31, 39, 35, 42, 32, 39, 46, 39, 37, 33, 46, 41, 42, 35, 31, 38, 44, 35, 42, 30, 33, 50, 30, 32, 33, 44, 48, 46, 35, 47, 50, 40, 34, 44, 33, 50, 34]], [[0, 0, 0, 0, 0, 0, 0, 0, 0, 0, 0, 0, 0, 0, 0, 0, 0, 0, 0, 0, 0, 0, 0, 0, 0, 0, 0, 0, 0, 0, 0, 0, 0, 0, 0, 0, 0, 0, 0, 0, 0, 0, 0, 0, 0, 0, 0, 0, 0, 0, 0, 0, 0, 0, 0, 0, 0, 0, 0, 0], [0, 0, 0, 0, 0, 0, 0, 0, 0, 0, 0, 0, 0, 0, 0, 0, 0, 0, 0, 0, 0, 0, 0, 0, 0, 0, 0, 0, 0, 0, 0, 0, 0, 0, 0, 0, 0, 0, 0, 0, 0, 0, 0, 0, 0, 0, 0, 0, 0, 0, 0, 0, 0, 0, 0, 0, 0, 0, 0, 0], [0, 0, 0, 0, 0, 0, 0, 0, 0, 0, 0, 0, 0, 0, 0, 0, 0, 0, 0, 0, 0, 0, 0, 0, 0, 0, 0, 0, 0, 0, 0, 0, 0, 0, 0, 0, 0, 0, 0, 0, 0, 0, 0, 0, 0, 0, 0, 0, 0, 0, 0, 0, 0, 0, 0, 0, 0, 0, 0, 0], [0, 0, 0, 0, 0, 0, 0, 0, 0, 0, 0, 0, 0, 0, 0, 0, 0, 0, 0, 0, 0, 0, 0, 0, 0, 0, 0, 0, 0, 0, 0, 0, 0, 0, 0, 0, 0, 0, 0, 0, 0, 0, 0, 0, 0, 0, 0, 0, 0, 0, 0, 0, 0, 0, 0, 0, 0, 0, 0, 0], [48, 40, 30, 49, 35, 48, 30, 37, 46, 38, 35, 49, 37, 44, 38, 47, 43, 47, 46, 49, 39, 40, 39, 50, 39, 50, 44, 39, 50, 35, 37, 33, 44, 43, 34, 49, 40, 43, 44, 38, 44, 50, 31, 45, 32, 30, 42, 37, 48, 45, 50, 49, 47, 46, 33, 36, 32, 34, 41, 48], [31, 44, 30, 35, 46, 46, 48, 50, 35, 47, 46, 46, 39, 33, 40, 31, 33, 33, 44, 49, 35, 39, 37, 41, 37, 48, 47, 46, 39, 46, 41, 49, 46, 44, 31, 35, 30, 48, 32, 44, 38, 42, 44, 35, 46, 44, 30, 35, 47, 41, 36, 37, 41, 42, 38, 36, 36, 42, 33, 46], [41, 33, 40, 33, 49, 31, 40, 35, 39, 42, 32, 41, 41, 37, 33, 43, 31, 48, 36, 31, 48, 45, 48, 42, 45, 48, 41, 49, 41, 39, 33, 34, 40, 44, 44, 47, 31, 31, 30, 43, 31, 41, 35, 39, 38, 41, 47, 37, 44, 42, 45, 49, 45, 48, 33, 47, 38, 37, 39, 39], [42, 42, 38, 40, 42, 32, 45, 34, 41, 40, 39, 37, 35, 40, 44, 44, 30, 41, 31, 42, 38, 35, 33, 35, 33, 46, 39, 39, 30, 45, 35, 46, 32, 39, 37, 43, 50, 34, 48, 39, 48, 37, 47, 47, 42, 50, 43, 33, 39, 47, 33, 47, 36, 49, 50, 33, 31, 47, 42, 47], [36, 37, 36, 38, 41, 34, 47, 41, 39, 38, 50, 38, 50, 40, 33, 34, 36, 39, 46, 38, 42, 37, 43, 34, 36, 36, 48, 40, 30, 31, 39, 47, 50, 31, 43, 42, 36, 36, 42, 32, 42, 31, 40, 50, 35, 43, 41, 45, 32, 46, 31, 47, 38, 46, 36, 40, 31, 43, 30, 41], [31, 31, 45, 47, 35, 42, 49, 42, 31, 50, 41, 45, 30, 38, 30, 37, 50, 35, 46, 38, 40, 48, 44, 48, 32, 40, 46, 38, 42, 46, 34, 34, 47, 46, 39, 41, 43, 31, 39, 48, 50, 44, 49, 33, 48, 46, 47, 37, 43, 48, 48, 44, 41, 45, 30, 46, 43, 46, 32, 48]], [[0, 0, 0, 0, 0, 0, 0, 0, 0, 0, 0, 0, 0, 0, 0, 0, 0, 0, 0, 0, 0, 0, 0, 0, 0, 0, 0, 0, 0, 0, 0, 0, 0, 0, 0, 0, 0, 0, 0, 0, 0, 0, 0, 0, 0, 0, 0, 0, 0, 0, 0, 0, 0, 0, 0, 0, 0, 0, 0, 0], [0, 0, 0, 0, 0, 0, 0, 0, 0, 0, 0, 0, 0, 0, 0, 0, 0, 0, 0, 0, 0, 0, 0, 0, 0, 0, 0, 0, 0, 0, 0, 0, 0, 0, 0, 0, 0, 0, 0, 0, 0, 0, 0, 0, 0, 0, 0, 0, 0, 0, 0, 0, 0, 0, 0, 0, 0, 0, 0, 0], [0, 0, 0, 0, 0, 0, 0, 0, 0, 0, 0, 0, 0, 0, 0, 0, 0, 0, 0, 0, 0, 0, 0, 0, 0, 0, 0, 0, 0, 0, 0, 0, 0, 0, 0, 0, 0, 0, 0, 0, 0, 0, 0, 0, 0, 0, 0, 0, 0, 0, 0, 0, 0, 0, 0, 0, 0, 0, 0, 0], [0, 0, 0, 0, 0, 0, 0, 0, 0, 0, 0, 0, 0, 0, 0, 0, 0, 0, 0, 0, 0, 0, 0, 0, 0, 0, 0, 0, 0, 0, 0, 0, 0, 0, 0, 0, 0, 0, 0, 0, 0, 0, 0, 0, 0, 0, 0, 0, 0, 0, 0, 0, 0, 0, 0, 0, 0, 0, 0, 0], [0, 0, 0, 0, 0, 0, 0, 0, 0, 0, 0, 0, 0, 0, 0, 0, 0, 0, 0, 0, 0, 0, 0, 0, 0, 0, 0, 0, 0, 0, 0, 0, 0, 0, 0, 0, 0, 0, 0, 0, 0, 0, 0, 0, 0, 0, 0, 0, 0, 0, 0, 0, 0, 0, 0, 0, 0, 0, 0, 0], [37, 38, 47, 48, 41, 42, 45, 41, 34, 45, 40, 37, 33, 32, 42, 35, 32, 50, 44, 50, 41, 42, 32, 44, 37, 36, 34, 38, 40, 40, 43, 30, 37, 30, 33, 38, 50, 32, 34, 33, 34, 34, 42, 48, 37, 41, 30, 48, 44, 44, 38, 41, 33, 35, 33, 44, 40, 32, 48, 43], [48, 32, 48, 34, 45, 41, 41, 38, 36, 49, 40, 43, 49, 42, 34, 40, 30, 45, 43, 32, 39, 45, 30, 33, 47, 35, 48, 40, 33, 31, 30, 36, 31, 40, 32, 39, 50, 31, 34, 43, 49, 41, 44, 44, 39, 34, 30, 34, 31, 48, 44, 44, 45, 36, 37, 41, 31, 32, 32, 34], [44, 44, 35, 31, 48, 48, 33, 32, 36, 42, 37, 34, 36, 37, 33, 47, 31, 30, 46, 49, 35, 47, 30, 31, 48, 31, 48, 47, 41, 32, 44, 40, 42, 42, 43, 33, 47, 33, 39, 42, 47, 40, 42, 30, 45, 36, 44, 40, 31, 34, 39, 33, 30, 48, 40, 44, 48, 43, 42, 39], [44, 42, 33, 36, 44, 34, 30, 50, 40, 33, 49, 34, 42, 44, 40, 40, 44, 34, 41, 37, 47, 42, 48, 49, 39, 42, 46, 45, 47, 46, 34, 30, 33, 45, 46, 44, 31, 38, 38, 41, 40, 44, 44, 48, 41, 44, 36, 45, 41, 34, 41, 46, 34, 32, 36, 33, 45, 49, 43, 41], [34, 44, 33, 42, 32, 49, 49, 32, 42, 44, 31, 45, 38, 30, 46, 33, 32, 33, 32, 40, 47, 34, 50, 34, 32, 37, 48, 49, 49, 49, 38, 30, 47, 39, 32, 32, 39, 34, 33, 31, 35, 37, 31, 50, 39, 36, 31, 35, 45, 31, 35, 50, 36, 45, 46, 38, 31, 50, 42, 48]], [[0, 0, 0, 0, 0, 0, 0, 0, 0, 0, 0, 0, 0, 0, 0, 0, 0, 0, 0, 0, 0, 0, 0, 0, 0, 0, 0, 0, 0, 0, 0, 0, 0, 0, 0, 0, 0, 0, 0, 0, 0, 0, 0, 0, 0, 0, 0, 0, 0, 0, 0, 0, 0, 0, 0, 0, 0, 0, 0, 0], [0, 0, 0, 0, 0, 0, 0, 0, 0, 0, 0, 0, 0, 0, 0, 0, 0, 0, 0, 0, 0, 0, 0, 0, 0, 0, 0, 0, 0, 0, 0, 0, 0, 0, 0, 0, 0, 0, 0, 0, 0, 0, 0, 0, 0, 0, 0, 0, 0, 0, 0, 0, 0, 0, 0, 0, 0, 0, 0, 0], [0, 0, 0, 0, 0, 0, 0, 0, 0, 0, 0, 0, 0, 0, 0, 0, 0, 0, 0, 0, 0, 0, 0, 0, 0, 0, 0, 0, 0, 0, 0, 0, 0, 0, 0, 0, 0, 0, 0, 0, 0, 0, 0, 0, 0, 0, 0, 0, 0, 0, 0, 0, 0, 0, 0, 0, 0, 0, 0, 0], [0, 0, 0, 0, 0, 0, 0, 0, 0, 0, 0, 0, 0, 0, 0, 0, 0, 0, 0, 0, 0, 0, 0, 0, 0, 0, 0, 0, 0, 0, 0, 0, 0, 0, 0, 0, 0, 0, 0, 0, 0, 0, 0, 0, 0, 0, 0, 0, 0, 0, 0, 0, 0, 0, 0, 0, 0, 0, 0, 0], [0, 0, 0, 0, 0, 0, 0, 0, 0, 0, 0, 0, 0, 0, 0, 0, 0, 0, 0, 0, 0, 0, 0, 0, 0, 0, 0, 0, 0, 0, 0, 0, 0, 0, 0, 0, 0, 0, 0, 0, 0, 0, 0, 0, 0, 0, 0, 0, 0, 0, 0, 0, 0, 0, 0, 0, 0, 0, 0, 0], [0, 0, 0, 0, 0, 0, 0, 0, 0, 0, 0, 0, 0, 0, 0, 0, 0, 0, 0, 0, 0, 0, 0, 0, 0, 0, 0, 0, 0, 0, 0, 0, 0, 0, 0, 0, 0, 0, 0, 0, 0, 0, 0, 0, 0, 0, 0, 0, 0, 0, 0, 0, 0, 0, 0, 0, 0, 0, 0, 0], [35, 43, 48, 42, 49, 46, 34, 36, 42, 50, 50, 43, 42, 32, 34, 45, 36, 35, 48, 49, 42, 48, 47, 46, 40, 33, 46, 47, 36, 36, 39, 47, 35, 46, 41, 40, 42, 48, 45, 41, 40, 41, 49, 36, 42, 30, 36, 30, 35, 46, 45, 35, 46, 40, 40, 30, 43, 43, 32, 32], [37, 38, 43, 37, 40, 40, 44, 39, 32, 32, 50, 50, 39, 37, 38, 48, 33, 44, 50, 31, 44, 30, 33, 33, 46, 32, 33, 41, 30, 43, 40, 34, 38, 49, 32, 30, 48, 40, 38, 31, 41, 33, 41, 34, 48, 32, 36, 48, 34, 36, 34, 34, 38, 41, 35, 43, 33, 46, 49, 44], [35, 40, 37, 45, 42, 45, 39, 36, 40, 38, 44, 50, 40, 44, 41, 31, 40, 34, 30, 31, 43, 50, 38, 39, 37, 50, 44, 37, 31, 47, 41, 41, 36, 38, 31, 37, 47, 31, 49, 31, 33, 38, 42, 34, 30, 46, 39, 44, 31, 34, 39, 35, 32, 43, 49, 46, 37, 39, 40, 33], [33, 33, 49, 46, 45, 42, 31, 32, 31, 34, 44, 32, 40, 48, 48, 33, 40, 36, 41, 41, 48, 40, 34, 33, 31, 37, 42, 43, 33, 49, 39, 38, 49, 39, 34, 35, 36, 50, 43, 36, 31, 49, 48, 49, 41, 48, 35, 31, 41, 43, 34, 31, 32, 30, 44, 31, 38, 41, 33, 41]], [[0, 0, 0, 0, 0, 0, 0, 0, 0, 0, 0, 0, 0, 0, 0, 0, 0, 0, 0, 0, 0, 0, 0, 0, 0, 0, 0, 0, 0, 0, 0, 0, 0, 0, 0, 0, 0, 0, 0, 0, 0, 0, 0, 0, 0, 0, 0, 0, 0, 0, 0, 0, 0, 0, 0, 0, 0, 0, 0, 0], [0, 0, 0, 0, 0, 0, 0, 0, 0, 0, 0, 0, 0, 0, 0, 0, 0, 0, 0, 0, 0, 0, 0, 0, 0, 0, 0, 0, 0, 0, 0, 0, 0, 0, 0, 0, 0, 0, 0, 0, 0, 0, 0, 0, 0, 0, 0, 0, 0, 0, 0, 0, 0, 0, 0, 0, 0, 0, 0, 0], [0, 0, 0, 0, 0, 0, 0, 0, 0, 0, 0, 0, 0, 0, 0, 0, 0, 0, 0, 0, 0, 0, 0, 0, 0, 0, 0, 0, 0, 0, 0, 0, 0, 0, 0, 0, 0, 0, 0, 0, 0, 0, 0, 0, 0, 0, 0, 0, 0, 0, 0, 0, 0, 0, 0, 0, 0, 0, 0, 0], [0, 0, 0, 0, 0, 0, 0, 0, 0, 0, 0, 0, 0, 0, 0, 0, 0, 0, 0, 0, 0, 0, 0, 0, 0, 0, 0, 0, 0, 0, 0, 0, 0, 0, 0, 0, 0, 0, 0, 0, 0, 0, 0, 0, 0, 0, 0, 0, 0, 0, 0, 0, 0, 0, 0, 0, 0, 0, 0, 0], [0, 0, 0, 0, 0, 0, 0, 0, 0, 0, 0, 0, 0, 0, 0, 0, 0, 0, 0, 0, 0, 0, 0, 0, 0, 0, 0, 0, 0, 0, 0, 0, 0, 0, 0, 0, 0, 0, 0, 0, 0, 0, 0, 0, 0, 0, 0, 0, 0, 0, 0, 0, 0, 0, 0, 0, 0, 0, 0, 0], [0, 0, 0, 0, 0, 0, 0, 0, 0, 0, 0, 0, 0, 0, 0, 0, 0, 0, 0, 0, 0, 0, 0, 0, 0, 0, 0, 0, 0, 0, 0, 0, 0, 0, 0, 0, 0, 0, 0, 0, 0, 0, 0, 0, 0, 0, 0, 0, 0, 0, 0, 0, 0, 0, 0, 0, 0, 0, 0, 0], [0, 0, 0, 0, 0, 0, 0, 0, 0, 0, 0, 0, 0, 0, 0, 0, 0, 0, 0, 0, 0, 0, 0, 0, 0, 0, 0, 0, 0, 0, 0, 0, 0, 0, 0, 0, 0, 0, 0, 0, 0, 0, 0, 0, 0, 0, 0, 0, 0, 0, 0, 0, 0, 0, 0, 0, 0, 0, 0, 0], [38, 49, 43, 32, 43, 40, 38, 46, 30, 50, 37, 30, 46, 30, 37, 45, 37, 38, 36, 43, 45, 31, 48, 35, 34, 45, 32, 50, 34, 38, 49, 36, 46, 37, 46, 41, 45, 45, 37, 41, 36, 36, 36, 31, 39, 32, 31, 47, 46, 45, 37, 34, 30, 41, 30, 44, 31, 43, 40, 48], [41, 43, 47, 31, 46, 50, 41, 45, 46, 30, 41, 43, 31, 31, 36, 49, 42, 41, 39, 31, 32, 43, 44, 50, 34, 41, 43, 38, 35, 32, 46, 38, 36, 44, 43, 41, 50, 44, 34, 34, 37, 33, 33, 40, 31, 45, 31, 50, 39, 50, 37, 48, 49, 38, 34, 38, 49, 42, 38, 36], [49, 48, 50, 44, 37, 35, 34, 44, 38, 30, 48, 36, 38, 44, 31, 36, 30, 45, 40, 31, 43, 44, 50, 30, 32, 32, 30, 32, 35, 35, 40, 47, 30, 32, 36, 40, 36, 33, 42, 40, 39, 46, 30, 30, 50, 45, 35, 45, 45, 45, 44, 31, 35, 43, 32, 33, 46, 32, 38, 34]], [[0, 0, 0, 0, 0, 0, 0, 0, 0, 0, 0, 0, 0, 0, 0, 0, 0, 0, 0, 0, 0, 0, 0, 0, 0, 0, 0, 0, 0, 0, 0, 0, 0, 0, 0, 0, 0, 0, 0, 0, 0, 0, 0, 0, 0, 0, 0, 0, 0, 0, 0, 0, 0, 0, 0, 0, 0, 0, 0, 0], [0, 0, 0, 0, 0, 0, 0, 0, 0, 0, 0, 0, 0, 0, 0, 0, 0, 0, 0, 0, 0, 0, 0, 0, 0, 0, 0, 0, 0, 0, 0, 0, 0, 0, 0, 0, 0, 0, 0, 0, 0, 0, 0, 0, 0, 0, 0, 0, 0, 0, 0, 0, 0, 0, 0, 0, 0, 0, 0, 0], [0, 0, 0, 0, 0, 0, 0, 0, 0, 0, 0, 0, 0, 0, 0, 0, 0, 0, 0, 0, 0, 0, 0, 0, 0, 0, 0, 0, 0, 0, 0, 0, 0, 0, 0, 0, 0, 0, 0, 0, 0, 0, 0, 0, 0, 0, 0, 0, 0, 0, 0, 0, 0, 0, 0, 0, 0, 0, 0, 0], [0, 0, 0, 0, 0, 0, 0, 0, 0, 0, 0, 0, 0, 0, 0, 0, 0, 0, 0, 0, 0, 0, 0, 0, 0, 0, 0, 0, 0, 0, 0, 0, 0, 0, 0, 0, 0, 0, 0, 0, 0, 0, 0, 0, 0, 0, 0, 0, 0, 0, 0, 0, 0, 0, 0, 0, 0, 0, 0, 0], [0, 0, 0, 0, 0, 0, 0, 0, 0, 0, 0, 0, 0, 0, 0, 0, 0, 0, 0, 0, 0, 0, 0, 0, 0, 0, 0, 0, 0, 0, 0, 0, 0, 0, 0, 0, 0, 0, 0, 0, 0, 0, 0, 0, 0, 0, 0, 0, 0, 0, 0, 0, 0, 0, 0, 0, 0, 0, 0, 0], [0, 0, 0, 0, 0, 0, 0, 0, 0, 0, 0, 0, 0, 0, 0, 0, 0, 0, 0, 0, 0, 0, 0, 0, 0, 0, 0, 0, 0, 0, 0, 0, 0, 0, 0, 0, 0, 0, 0, 0, 0, 0, 0, 0, 0, 0, 0, 0, 0, 0, 0, 0, 0, 0, 0, 0, 0, 0, 0, 0], [0, 0, 0, 0, 0, 0, 0, 0, 0, 0, 0, 0, 0, 0, 0, 0, 0, 0, 0, 0, 0, 0, 0, 0, 0, 0, 0, 0, 0, 0, 0, 0, 0, 0, 0, 0, 0, 0, 0, 0, 0, 0, 0, 0, 0, 0, 0, 0, 0, 0, 0, 0, 0, 0, 0, 0, 0, 0, 0, 0], [0, 0, 0, 0, 0, 0, 0, 0, 0, 0, 0, 0, 0, 0, 0, 0, 0, 0, 0, 0, 0, 0, 0, 0, 0, 0, 0, 0, 0, 0, 0, 0, 0, 0, 0, 0, 0, 0, 0, 0, 0, 0, 0, 0, 0, 0, 0, 0, 0, 0, 0, 0, 0, 0, 0, 0, 0, 0, 0, 0], [35, 49, 46, 37, 38, 36, 36, 35, 44, 44, 39, 30, 44, 31, 43, 47, 50, 44, 36, 31, 48, 36, 40, 44, 43, 42, 35, 50, 35, 45, 38, 45, 33, 35, 43, 35, 37, 34, 34, 40, 50, 36, 32, 31, 41, 35, 38, 36, 37, 35, 41, 32, 36, 41, 39, 34, 50, 45, 35, 34], [30, 44, 32, 30, 50, 30, 35, 50, 41, 35, 47, 50, 37, 32, 33, 36, 46, 41, 44, 50, 37, 39, 44, 47, 42, 33, 46, 38, 35, 45, 35, 39, 40, 48, 38, 49, 41, 50, 44, 50, 41, 44, 36, 30, 43, 47, 47, 48, 40, 36, 38, 47, 40, 49, 34, 45, 41, 48, 47, 38]], [[0, 0, 0, 0, 0, 0, 0, 0, 0, 0, 0, 0, 0, 0, 0, 0, 0, 0, 0, 0, 0, 0, 0, 0, 0, 0, 0, 0, 0, 0, 0, 0, 0, 0, 0, 0, 0, 0, 0, 0, 0, 0, 0, 0, 0, 0, 0, 0, 0, 0, 0, 0, 0, 0, 0, 0, 0, 0, 0, 0], [0, 0, 0, 0, 0, 0, 0, 0, 0, 0, 0, 0, 0, 0, 0, 0, 0, 0, 0, 0, 0, 0, 0, 0, 0, 0, 0, 0, 0, 0, 0, 0, 0, 0, 0, 0, 0, 0, 0, 0, 0, 0, 0, 0, 0, 0, 0, 0, 0, 0, 0, 0, 0, 0, 0, 0, 0, 0, 0, 0], [0, 0, 0, 0, 0, 0, 0, 0, 0, 0, 0, 0, 0, 0, 0, 0, 0, 0, 0, 0, 0, 0, 0, 0, 0, 0, 0, 0, 0, 0, 0, 0, 0, 0, 0, 0, 0, 0, 0, 0, 0, 0, 0, 0, 0, 0, 0, 0, 0, 0, 0, 0, 0, 0, 0, 0, 0, 0, 0, 0], [0, 0, 0, 0, 0, 0, 0, 0, 0, 0, 0, 0, 0, 0, 0, 0, 0, 0, 0, 0, 0, 0, 0, 0, 0, 0, 0, 0, 0, 0, 0, 0, 0, 0, 0, 0, 0, 0, 0, 0, 0, 0, 0, 0, 0, 0, 0, 0, 0, 0, 0, 0, 0, 0, 0, 0, 0, 0, 0, 0], [0, 0, 0, 0, 0, 0, 0, 0, 0, 0, 0, 0, 0, 0, 0, 0, 0, 0, 0, 0, 0, 0, 0, 0, 0, 0, 0, 0, 0, 0, 0, 0, 0, 0, 0, 0, 0, 0, 0, 0, 0, 0, 0, 0, 0, 0, 0, 0, 0, 0, 0, 0, 0, 0, 0, 0, 0, 0, 0, 0], [0, 0, 0, 0, 0, 0, 0, 0, 0, 0, 0, 0, 0, 0, 0, 0, 0, 0, 0, 0, 0, 0, 0, 0, 0, 0, 0, 0, 0, 0, 0, 0, 0, 0, 0, 0, 0, 0, 0, 0, 0, 0, 0, 0, 0, 0, 0, 0, 0, 0, 0, 0, 0, 0, 0, 0, 0, 0, 0, 0], [0, 0, 0, 0, 0, 0, 0, 0, 0, 0, 0, 0, 0, 0, 0, 0, 0, 0, 0, 0, 0, 0, 0, 0, 0, 0, 0, 0, 0, 0, 0, 0, 0, 0, 0, 0, 0, 0, 0, 0, 0, 0, 0, 0, 0, 0, 0, 0, 0, 0, 0, 0, 0, 0, 0, 0, 0, 0, 0, 0], [0, 0, 0, 0, 0, 0, 0, 0, 0, 0, 0, 0, 0, 0, 0, 0, 0, 0, 0, 0, 0, 0, 0, 0, 0, 0, 0, 0, 0, 0, 0, 0, 0, 0, 0, 0, 0, 0, 0, 0, 0, 0, 0, 0, 0, 0, 0, 0, 0, 0, 0, 0, 0, 0, 0, 0, 0, 0, 0, 0], [0, 0, 0, 0, 0, 0, 0, 0, 0, 0, 0, 0, 0, 0, 0, 0, 0, 0, 0, 0, 0, 0, 0, 0, 0, 0, 0, 0, 0, 0, 0, 0, 0, 0, 0, 0, 0, 0, 0, 0, 0, 0, 0, 0, 0, 0, 0, 0, 0, 0, 0, 0, 0, 0, 0, 0, 0, 0, 0, 0], [49, 31, 41, 42, 39, 36, 46, 50, 37, 37, 39, 30, 50, 49, 31, 49, 45, 48, 49, 37, 40, 40, 32, 44, 33, 46, 36, 50, 43, 34, 44, 49, 33, 34, 41, 47, 33, 38, 42, 32, 45, 30, 31, 34, 38, 49, 43, 47, 30, 47, 50, 31, 47, 50, 49, 34, 46, 49, 40, 48]], [[0, 0, 0, 0, 0, 0, 0, 0, 0, 0, 0, 0, 0, 0, 0, 0, 0, 0, 0, 0, 0, 0, 0, 0, 0, 0, 0, 0, 0, 0, 0, 0, 0, 0, 0, 0, 0, 0, 0, 0, 0, 0, 0, 0, 0, 0, 0, 0, 0, 0, 0, 0, 0, 0, 0, 0, 0, 0, 0, 0], [0, 0, 0, 0, 0, 0, 0, 0, 0, 0, 0, 0, 0, 0, 0, 0, 0, 0, 0, 0, 0, 0, 0, 0, 0, 0, 0, 0, 0, 0, 0, 0, 0, 0, 0, 0, 0, 0, 0, 0, 0, 0, 0, 0, 0, 0, 0, 0, 0, 0, 0, 0, 0, 0, 0, 0, 0, 0, 0, 0], [0, 0, 0, 0, 0, 0, 0, 0, 0, 0, 0, 0, 0, 0, 0, 0, 0, 0, 0, 0, 0, 0, 0, 0, 0, 0, 0, 0, 0, 0, 0, 0, 0, 0, 0, 0, 0, 0, 0, 0, 0, 0, 0, 0, 0, 0, 0, 0, 0, 0, 0, 0, 0, 0, 0, 0, 0, 0, 0, 0], [0, 0, 0, 0, 0, 0, 0, 0, 0, 0, 0, 0, 0, 0, 0, 0, 0, 0, 0, 0, 0, 0, 0, 0, 0, 0, 0, 0, 0, 0, 0, 0, 0, 0, 0, 0, 0, 0, 0, 0, 0, 0, 0, 0, 0, 0, 0, 0, 0, 0, 0, 0, 0, 0, 0, 0, 0, 0, 0, 0], [0, 0, 0, 0, 0, 0, 0, 0, 0, 0, 0, 0, 0, 0, 0, 0, 0, 0, 0, 0, 0, 0, 0, 0, 0, 0, 0, 0, 0, 0, 0, 0, 0, 0, 0, 0, 0, 0, 0, 0, 0, 0, 0, 0, 0, 0, 0, 0, 0, 0, 0, 0, 0, 0, 0, 0, 0, 0, 0, 0], [0, 0, 0, 0, 0, 0, 0, 0, 0, 0, 0, 0, 0, 0, 0, 0, 0, 0, 0, 0, 0, 0, 0, 0, 0, 0, 0, 0, 0, 0, 0, 0, 0, 0, 0, 0, 0, 0, 0, 0, 0, 0, 0, 0, 0, 0, 0, 0, 0, 0, 0, 0, 0, 0, 0, 0, 0, 0, 0, 0], [0, 0, 0, 0, 0, 0, 0, 0, 0, 0, 0, 0, 0, 0, 0, 0, 0, 0, 0, 0, 0, 0, 0, 0, 0, 0, 0, 0, 0, 0, 0, 0, 0, 0, 0, 0, 0, 0, 0, 0, 0, 0, 0, 0, 0, 0, 0, 0, 0, 0, 0, 0, 0, 0, 0, 0, 0, 0, 0, 0], [0, 0, 0, 0, 0, 0, 0, 0, 0, 0, 0, 0, 0, 0, 0, 0, 0, 0, 0, 0, 0, 0, 0, 0, 0, 0, 0, 0, 0, 0, 0, 0, 0, 0, 0, 0, 0, 0, 0, 0, 0, 0, 0, 0, 0, 0, 0, 0, 0, 0, 0, 0, 0, 0, 0, 0, 0, 0, 0, 0], [0, 0, 0, 0, 0, 0, 0, 0, 0, 0, 0, 0, 0, 0, 0, 0, 0, 0, 0, 0, 0, 0, 0, 0, 0, 0, 0, 0, 0, 0, 0, 0, 0, 0, 0, 0, 0, 0, 0, 0, 0, 0, 0, 0, 0, 0, 0, 0, 0, 0, 0, 0, 0, 0, 0, 0, 0, 0, 0, 0], [0, 0, 0, 0, 0, 0, 0, 0, 0, 0, 0, 0, 0, 0, 0, 0, 0, 0, 0, 0, 0, 0, 0, 0, 0, 0, 0, 0, 0, 0, 0, 0, 0, 0, 0, 0, 0, 0, 0, 0, 0, 0, 0, 0, 0, 0, 0, 0, 0, 0, 0, 0, 0, 0, 0, 0, 0, 0, 0, 0]]];

q = [[[16, 122], [25, 117], [23, 109], [24, 121], [19, 112], [17, 110], [17, 125], [16, 123], [18, 123], [17, 118], [12, 108], [10, 106], [24, 105], [25, 125], [6, 106], [18, 119], [17, 113], [6, 112], [10, 121], [10, 117], [6, 107], [11, 121], [8, 111], [25, 120], [22, 121], [18, 112], [18, 114], [12, 106], [17, 113], [5, 125], [16, 120], [8, 118], [17, 123], [15, 115], [22, 109], [13, 108], [13, 114], [15, 114], [10, 117], [25, 109], [15, 122], [18, 105], [20, 111], [25, 108], [6, 110], [18, 109], [15, 124], [24, 111], [9, 121], [16, 117], [7, 122], [15, 119], [24, 110], [9, 120], [18, 110], [12, 105], [9, 121], [19, 113], [22, 116], [16, 108]], [[10, 108], [7, 120], [20, 107], [18, 120], [19, 109], [7, 117], [8, 116], [8, 112], [18, 112], [7, 107], [8, 106], [16, 109], [14, 121], [11, 116], [20, 109], [17, 120], [5, 116], [6, 113], [17, 114], [19, 119], [21, 106], [20, 109], [10, 105], [5, 123], [25, 125], [15, 110], [5, 114], [16, 108], [19, 116], [11, 111], [14, 115], [13, 110], [12, 115], [22, 120], [18, 115], [13, 124], [6, 121], [8, 119], [17, 125], [5, 125], [5, 109], [23, 120], [23, 113], [11, 105], [12, 118], [17, 123], [17, 117], [19, 123], [21, 111], [24, 118], [15, 106], [11, 105], [23, 107], [11, 111], [18, 106], [6, 119], [21, 120], [8, 114], [24, 107], [14, 105]], [[5, 107], [5, 117], [13, 117], [22, 114], [5, 123], [25, 119], [9, 108], [9, 114], [14, 111], [8, 114], [11, 117], [8, 112], [13, 121], [10, 112], [16, 121], [12, 119], [5, 105], [20, 124], [19, 124], [16, 108], [13, 122], [19, 123], [18, 120], [8, 107], [18, 121], [6, 112], [23, 122], [9, 118], [12, 113], [12, 123], [21, 105], [11, 124], [13, 120], [8, 108], [17, 115], [16, 114], [12, 121], [14, 124], [22, 117], [13, 124], [12, 120], [16, 118], [24, 114], [7, 121], [18, 125], [17, 117], [8, 123], [17, 116], [17, 109], [25, 109], [22, 113], [16, 113], [20, 125], [13, 110], [12, 111], [22, 125], [12, 116], [14, 122], [8, 118], [18, 120]], [[25, 111], [19, 114], [15, 114], [7, 123], [21, 123], [16, 107], [23, 124], [10, 110], [24, 117], [14, 106], [19, 109], [17, 112], [10, 122], [14, 106], [25, 105], [21, 122], [13, 110], [6, 117], [8, 121], [8, 120], [15, 108], [13, 111], [20, 123], [19, 105], [11, 110], [7, 109], [18, 105], [6, 119], [13, 116], [9, 110], [13, 108], [7, 115], [16, 109], [23, 117], [9, 116], [7, 116], [6, 112], [7, 122], [13, 119], [7, 109], [16, 115], [8, 110], [21, 110], [14, 121], [16, 122], [25, 111], [22, 113], [7, 124], [10, 113], [13, 123], [17, 118], [23, 111], [6, 113], [19, 112], [22, 113], [15, 105], [14, 121], [10, 107], [23, 106], [25, 111]], [[25, 110], [20, 124], [25, 107], [13, 108], [7, 110], [6, 105], [11, 105], [7, 108], [12, 119], [17, 121], [18, 107], [23, 119], [16, 123], [25, 123], [21, 115], [9, 111], [19, 105], [20, 111], [13, 116], [24, 121], [24, 121], [9, 105], [17, 123], [20, 110], [19, 105], [13, 118], [6, 105], [18, 125], [11, 116], [8, 118], [5, 117], [6, 106], [17, 120], [11, 121], [9, 112], [8, 117], [16, 108], [16, 125], [24, 118], [12, 113], [5, 123], [12, 119], [15, 114], [14, 108], [10, 121], [8, 124], [21, 115], [13, 125], [17, 114], [16, 113], [18, 117], [7, 112], [15, 113], [22, 119], [5, 113], [9, 116], [22, 112], [12, 119], [25, 117], [11, 119]], [[23, 105], [8, 119], [15, 114], [7, 115], [15, 113], [7, 121], [12, 109], [10, 121], [17, 107], [13, 111], [13, 106], [11, 116], [21, 118], [23, 118], [21, 124], [8, 125], [10, 120], [17, 112], [15, 105], [25, 125], [10, 110], [13, 121], [10, 112], [18, 123], [18, 119], [9, 109], [11, 124], [22, 108], [18, 123], [24, 105], [24, 109], [18, 116], [21, 122], [22, 109], [19, 122], [17, 117], [23, 125], [25, 116], [16, 124], [5, 120], [11, 121], [7, 122], [10, 115], [18, 122], [5, 120], [7, 109], [19, 117], [12, 124], [9, 111], [23, 108], [25, 112], [17, 107], [13, 109], [11, 105], [10, 120], [6, 114], [5, 114], [19, 121], [22, 105], [24, 112]], [[25, 124], [19, 111], [24, 123], [20, 119], [18, 117], [6, 118], [8, 107], [16, 112], [22, 110], [14, 119], [22, 108], [8, 109], [15, 117], [13, 114], [15, 123], [12, 115], [21, 105], [20, 118], [13, 110], [16, 107], [12, 108], [20, 108], [7, 120], [18, 117], [19, 121], [24, 116], [9, 113], [7, 108], [10, 105], [11, 105], [17, 119], [17, 113], [11, 121], [21, 114], [25, 123], [5, 110], [18, 107], [9, 120], [22, 120], [22, 113], [11, 109], [9, 118], [14, 107], [7, 124], [13, 110], [13, 111], [22, 119], [20, 107], [15, 112], [17, 109], [20, 121], [8, 115], [21, 112], [8, 125], [5, 113], [25, 122], [21, 120], [19, 110], [10, 117], [8, 114]], [[18, 117], [24, 120], [20, 117], [8, 114], [19, 118], [21, 119], [23, 114], [6, 112], [20, 121], [23, 116], [23, 120], [9, 117], [7, 118], [23, 109], [20, 105], [7, 123], [6, 119], [11, 120], [23, 122], [16, 118], [17, 108], [24, 106], [23, 121], [19, 115], [14, 124], [13, 112], [15, 114], [22, 121], [13, 111], [16, 117], [6, 107], [14, 106], [20, 118], [11, 105], [13, 111], [19, 106], [17, 112], [12, 119], [6, 121], [23, 106], [13, 116], [25, 114], [23, 114], [12, 117], [17, 108], [5, 110], [24, 112], [25, 110], [11, 120], [10, 113], [25, 111], [25, 118], [22, 108], [12, 119], [12, 107], [10, 105], [8, 117], [8, 120], [18, 124], [14, 117]], [[18, 107], [10, 117], [9, 122], [23, 125], [17, 117], [13, 113], [15, 112], [13, 124], [8, 119], [5, 111], [15, 121], [6, 109], [15, 112], [12, 124], [8, 108], [23, 118], [7, 105], [22, 109], [10, 118], [9, 118], [14, 115], [24, 107], [8, 124], [11, 106], [7, 117], [20, 120], [24, 106], [6, 120], [22, 113], [20, 119], [6, 118], [18, 109], [8, 109], [10, 124], [6, 118], [22, 110], [18, 120], [18, 125], [5, 115], [7, 115], [13, 107], [25, 115], [7, 121], [15, 112], [18, 115], [15, 112], [19, 118], [7, 109], [23, 118], [11, 121], [7, 111], [6, 108], [9, 124], [15, 117], [7, 108], [12, 117], [9, 122], [20, 108], [11, 123], [23, 119]], [[22, 115], [20, 107], [10, 110], [16, 116], [24, 122], [22, 105], [15, 112], [5, 112], [25, 122], [24, 110], [11, 113], [8, 118], [7, 107], [20, 118], [24, 113], [6, 116], [19, 123], [13, 118], [14, 113], [8, 123], [18, 107], [6, 113], [16, 122], [21, 116], [6, 113], [16, 125], [14, 105], [21, 121], [18, 105], [5, 110], [15, 117], [21, 106], [7, 117], [10, 108], [20, 115], [18, 115], [22, 115], [14, 111], [12, 106], [18, 113], [17, 107], [9, 122], [14, 125], [12, 109], [17, 107], [22, 123], [8, 125], [16, 105], [13, 106], [12, 109], [6, 124], [20, 120], [20, 109], [6, 112], [9, 121], [22, 113], [13, 106], [20, 106], [24, 111], [19, 118]]];
Q = [[75, 552], [68, 548], [67, 561], [70, 547], [70, 553], [72, 555], [73, 549], [77, 551], [64, 554], [72, 547]];
